NAME : BB35.1281233.tour
COMMENT : Cost = 0_1281233
COMMENT : Found by LKH [Keld Helsgaun] Sun Apr 23 15:14:35 2017
TYPE : TOUR
DIMENSION : 73
TOUR_SECTION
1
7
42
5
40
15
50
33
68
21
56
11
46
32
34
67
69
9
44
8
43
28
63
72
22
57
25
60
35
70
3
38
29
64
26
61
19
54
23
13
48
58
14
49
30
65
31
66
18
53
6
41
73
12
47
17
16
27
52
51
62
24
4
39
59
20
55
36
71
10
2
45
37
-1
EOF
